sat
((rprim_1_1 16))
((rprim_1_2 20))
((rprim_1_3 12))
((rprim_1_4 12))
((rprim_1_5 4))
((rprim_1_6 1))
((rprim_1_7 18))
((rprim_1_8 12))
((rprim_1_9 18))
((rprim_1_10 12))
((rprim_1_11 12))
((rprim_1_12 19))
((rprim_1_13 19))
((rprim_1_14 9))
((rprim_1_15 3))
((rprim_1_16 1))
((rprim_1_17 1))
((rprim_1_18 14))
((rprim_1_19 18))
((rprim_1_20 17))
((rprim_1_21 1))
((rprim_1_22 1))
((rprim_1_23 17))
((rprim_1_24 1))
((rprim_1_25 1))
((rcost_1_1 4.0))
((rcost_1_2 4.0))
((rcost_1_3 3.0))
((rcost_1_4 3.0))
((rcost_1_5 2.0))
((rcost_1_6 0.0))
((rcost_1_7 4.0))
((rcost_1_8 3.0))
((rcost_1_9 4.0))
((rcost_1_10 3.0))
((rcost_1_11 3.0))
((rcost_1_12 4.0))
((rcost_1_13 4.0))
((rcost_1_14 3.0))
((rcost_1_15 2.0))
((rcost_1_16 0.0))
((rcost_1_17 0.0))
((rcost_1_18 4.0))
((rcost_1_19 4.0))
((rcost_1_20 4.0))
((rcost_1_21 0.0))
((rcost_1_22 0.0))
((rcost_1_23 4.0))
((rcost_1_24 0.0))
((rcost_1_25 0.0))
((rx_1_1 10))
((ry_1_1 2))
((rx_1_2 8))
((ry_1_2 0))
((rx_1_3 5))
((ry_1_3 0))
((rx_1_4 3))
((ry_1_4 0))
((rx_1_5 1))
((ry_1_5 0))
((rx_1_6 0))
((ry_1_6 0))
((rx_1_7 0))
((ry_1_7 0))
((rx_1_8 3))
((ry_1_8 0))
((rx_1_9 1))
((ry_1_9 0))
((rx_1_10 4))
((ry_1_10 0))
((rx_1_11 2))
((ry_1_11 0))
((rx_1_12 0))
((ry_1_12 0))
((rx_1_13 0))
((ry_1_13 3))
((rx_1_14 0))
((ry_1_14 6))
((rx_1_15 1))
((ry_1_15 5))
((rx_1_16 1))
((ry_1_16 4))
((rx_1_17 1))
((ry_1_17 4))
((rx_1_18 1))
((ry_1_18 4))
((rx_1_19 3))
((ry_1_19 6))
((rx_1_20 6))
((ry_1_20 6))
((rx_1_21 8))
((ry_1_21 4))
((rx_1_22 8))
((ry_1_22 4))
((rx_1_23 8))
((ry_1_23 4))
((rx_1_24 10))
((ry_1_24 2))
((rx_1_25 10))
((ry_1_25 2))
((rx_1_26 10))
((ry_1_26 2))
((rechassigned_1_1 0))
((rechassigned_1_2 0))
((rechassigned_1_3 0))
((rechassigned_1_4 0))
((rechassigned_1_5 0))
((rechassigned_1_6 0))
((rechassigned_1_7 0))
((rechassigned_1_8 0))
((rechassigned_1_9 0))
((rechassigned_1_10 0))
((rechassigned_1_11 0))
((rechassigned_1_12 0))
((rechassigned_1_13 0))
((rechassigned_1_14 0))
((rechassigned_1_15 0))
((rechassigned_1_16 1))
((rechassigned_1_17 1))
((rechassigned_1_18 0))
((rechassigned_1_19 0))
((rechassigned_1_20 0))
((rechassigned_1_21 1))
((rechassigned_1_22 1))
((rechassigned_1_23 0))
((rechassigned_1_24 0))
((rechassigned_1_25 0))
((rechassigned_1_26 0))
((rechassigned_2_1 0))
((rechassigned_2_2 0))
((rechassigned_2_3 0))
((rechassigned_2_4 0))
((rechassigned_2_5 0))
((rechassigned_2_6 0))
((rechassigned_2_7 0))
((rechassigned_2_8 0))
((rechassigned_2_9 0))
((rechassigned_2_10 0))
((rechassigned_2_11 0))
((rechassigned_2_12 0))
((rechassigned_2_13 0))
((rechassigned_2_14 0))
((rechassigned_2_15 0))
((rechassigned_2_16 0))
((rechassigned_2_17 0))
((rechassigned_2_18 0))
((rechassigned_2_19 0))
((rechassigned_2_20 0))
((rechassigned_2_21 0))
((rechassigned_2_22 0))
((rechassigned_2_23 0))
((rechassigned_2_24 1))
((rechassigned_2_25 1))
((rechassigned_2_26 0))
((total_rcost 0))
((lastrech_1_20 false))
((lastrech_1_21 true))
((lastrech_1_22 false))
((lastrech_1_23 false))
((lastrech_1_24 false))
((lastrech_2_20 false))
((lastrech_2_21 false))
((lastrech_2_22 false))
((lastrech_2_23 false))
((lastrech_2_24 true))
